80 870538330
5 9 65 1 52 68 37 20 77 21 38 59 34 22 12 23 26 11 53 71 80 43 7 73 4 48 79 10 16 74 40 51 15 56 67 27 25 57 13 55 69 33 17 36 54 63 18 24 66 29 32 41 45 2 47 42 70 6 49 44 14 31 76 72 58 3 75 19 78 39 62 28 61 35 50 30 60 64 46 8 
